Version identifier: 22.1.0.0 | 2022-03-09 | 1a383f8ce
CPXPARAM_Read_DataCheck                          1
1 of 1 MIP starts provided solutions.
MIP start 'm1' defined initial solution with objective 71.0000.
Tried aggregator 4 times.
MIP Presolve eliminated 147180 rows and 12079 columns.
MIP Presolve modified 1496 coefficients.
Aggregator did 138173 substitutions.
Reduced MIP has 12593 rows, 140280 columns, and 293441 nonzeros.
Reduced MIP has 140236 binaries, 44 generals, 0 SOSs, and 0 indicators.
Presolve time = 2.04 sec. (2125.37 ticks)
Tried aggregator 1 time.
Detecting symmetries...
Reduced MIP has 12593 rows, 140280 columns, and 293441 nonzeros.
Reduced MIP has 140236 binaries, 44 generals, 0 SOSs, and 0 indicators.
Presolve time = 0.37 sec. (236.20 ticks)
Probing fixed 67 vars, tightened 0 bounds.
Probing time = 0.61 sec. (62.53 ticks)
Clique table members: 283349.
MIP emphasis: balance optimality and feasibility.
MIP search method: dynamic search.
Parallel mode: deterministic, using up to 8 threads.
Root relaxation solution time = 1.45 sec. (1001.85 ticks)

        Nodes                                         Cuts/
   Node  Left     Objective  IInf  Best Integer    Best Bound    ItCnt     Gap

*     0+    0                           71.0000        0.0000           100.00%
      0     0       44.3951  9154       71.0000       44.3951       29   37.47%
      0     0        cutoff             71.0000                    421    0.00%
Elapsed time = 11.10 sec. (7219.02 ticks, tree = 0.01 MB, solutions = 1)

Zero-half cuts applied:  7
Gomory fractional cuts applied:  27

Root node processing (before b&c):
  Real time             =   11.11 sec. (7228.88 ticks)
Parallel b&c, 8 threads:
  Real time             =    0.00 sec. (0.00 ticks)
  Sync time (average)   =    0.00 sec.
  Wait time (average)   =    0.00 sec.
                          ------------
Total (root+branch&cut) =   11.11 sec. (7228.88 ticks)
